param n := 60;
param c := 10000
param : V : p w :=
   0	 361	 351
   1	 268	 258
   2	 401	 391
   3	 369	 359
   4	 269	 259
   5	 392	 382
   6	 386	 376
   7	 318	 308
   8	 326	 316
   9	 455	 445
  10	 285	 275
  11	 290	 280
  12	 436	 426
  13	 286	 276
  14	 308	 298
  15	 478	 468
  16	 269	 259
  17	 283	 273
  18	 463	 453
  19	 268	 258
  20	 299	 289
  21	 453	 443
  22	 263	 253
  23	 314	 304
  24	 390	 380
  25	 271	 261
  26	 369	 359
  27	 387	 377
  28	 314	 304
  29	 329	 319
  30	 493	 483
  31	 264	 254
  32	 273	 263
  33	 461	 451
  34	 271	 261
  35	 298	 288
  36	 383	 373
  37	 273	 263
  38	 374	 364
  39	 427	 417
  40	 286	 276
  41	 317	 307
  42	 373	 363
  43	 304	 294
  44	 353	 343
  45	 452	 442
  46	 264	 254
  47	 314	 304
  48	 422	 412
  49	 266	 256
  50	 342	 332
  51	 379	 369
  52	 272	 262
  53	 379	 369
  54	 439	 429
  55	 262	 252
  56	 329	 319
  57	 407	 397
  58	 276	 266
  59	 347	 337
;

set E :=
   0	   3
   0	   4
   0	   6
   0	   9
   0	  10
   0	  11
   0	  16
   0	  22
   0	  24
   0	  25
   0	  29
   0	  32
   0	  33
   0	  34
   0	  35
   0	  37
   0	  39
   0	  40
   0	  42
   0	  43
   0	  45
   0	  46
   0	  47
   0	  50
   0	  51
   0	  52
   0	  53
   0	  55
   0	  57
   0	  58
   1	   3
   1	   7
   1	   9
   1	  11
   1	  12
   1	  13
   1	  18
   1	  19
   1	  21
   1	  22
   1	  24
   1	  25
   1	  26
   1	  28
   1	  29
   1	  32
   1	  33
   1	  35
   1	  37
   1	  41
   1	  42
   1	  45
   1	  47
   1	  55
   1	  56
   1	  59
   2	   3
   2	   9
   2	  11
   2	  12
   2	  14
   2	  16
   2	  18
   2	  19
   2	  20
   2	  21
   2	  27
   2	  30
   2	  32
   2	  33
   2	  35
   2	  37
   2	  42
   2	  45
   2	  46
   2	  47
   2	  49
   2	  50
   2	  54
   2	  56
   2	  58
   3	   5
   3	   6
   3	   8
   3	  11
   3	  13
   3	  17
   3	  20
   3	  21
   3	  25
   3	  27
   3	  28
   3	  29
   3	  31
   3	  32
   3	  33
   3	  35
   3	  39
   3	  41
   3	  45
   3	  46
   3	  48
   3	  49
   3	  53
   3	  54
   3	  55
   4	   5
   4	   8
   4	  10
   4	  11
   4	  12
   4	  13
   4	  15
   4	  16
   4	  19
   4	  21
   4	  23
   4	  25
   4	  27
   4	  28
   4	  30
   4	  32
   4	  35
   4	  36
   4	  39
   4	  40
   4	  42
   4	  44
   4	  48
   4	  54
   4	  57
   4	  59
   5	   6
   5	   7
   5	  13
   5	  19
   5	  21
   5	  28
   5	  29
   5	  30
   5	  31
   5	  37
   5	  38
   5	  39
   5	  41
   5	  47
   5	  53
   5	  54
   5	  57
   6	   8
   6	  14
   6	  20
   6	  29
   6	  31
   6	  32
   6	  33
   6	  37
   6	  39
   6	  41
   6	  42
   6	  44
   6	  46
   6	  48
   6	  49
   6	  51
   6	  53
   6	  55
   6	  58
   6	  59
   7	   8
   7	  11
   7	  15
   7	  16
   7	  18
   7	  21
   7	  23
   7	  35
   7	  39
   7	  40
   7	  42
   7	  46
   7	  49
   7	  50
   7	  54
   7	  55
   8	  11
   8	  13
   8	  16
   8	  21
   8	  24
   8	  25
   8	  31
   8	  32
   8	  37
   8	  38
   8	  42
   8	  43
   8	  48
   8	  52
   8	  53
   8	  57
   9	  11
   9	  13
   9	  15
   9	  19
   9	  29
   9	  38
   9	  40
   9	  41
   9	  47
   9	  49
   9	  51
   9	  56
   9	  59
  10	  11
  10	  13
  10	  16
  10	  18
  10	  19
  10	  25
  10	  27
  10	  30
  10	  34
  10	  38
  10	  42
  10	  43
  10	  45
  10	  48
  10	  50
  10	  54
  10	  57
  10	  58
  11	  13
  11	  14
  11	  15
  11	  16
  11	  17
  11	  22
  11	  24
  11	  25
  11	  27
  11	  30
  11	  31
  11	  34
  11	  35
  11	  37
  11	  38
  11	  41
  11	  42
  11	  43
  11	  48
  11	  50
  11	  57
  11	  58
  11	  59
  12	  14
  12	  18
  12	  21
  12	  23
  12	  25
  12	  27
  12	  31
  12	  32
  12	  33
  12	  34
  12	  35
  12	  39
  12	  42
  12	  43
  12	  44
  12	  48
  12	  50
  12	  51
  12	  54
  12	  55
  12	  56
  12	  57
  12	  59
  13	  15
  13	  17
  13	  20
  13	  23
  13	  26
  13	  31
  13	  33
  13	  37
  13	  44
  13	  45
  13	  48
  13	  49
  13	  53
  13	  55
  14	  16
  14	  17
  14	  19
  14	  22
  14	  25
  14	  27
  14	  28
  14	  30
  14	  31
  14	  35
  14	  42
  14	  45
  14	  48
  14	  49
  14	  57
  14	  59
  15	  16
  15	  17
  15	  18
  15	  19
  15	  22
  15	  25
  15	  29
  15	  33
  15	  38
  15	  40
  15	  42
  15	  44
  15	  47
  15	  49
  15	  52
  15	  59
  16	  19
  16	  24
  16	  25
  16	  28
  16	  29
  16	  30
  16	  31
  16	  33
  16	  34
  16	  35
  16	  37
  16	  38
  16	  39
  16	  42
  16	  48
  16	  52
  17	  19
  17	  22
  17	  24
  17	  27
  17	  28
  17	  35
  17	  37
  17	  39
  17	  46
  17	  47
  17	  48
  17	  55
  17	  56
  17	  58
  18	  20
  18	  23
  18	  26
  18	  31
  18	  33
  18	  34
  18	  37
  18	  38
  18	  41
  18	  45
  18	  49
  18	  50
  18	  52
  18	  53
  18	  54
  18	  58
  19	  20
  19	  22
  19	  23
  19	  24
  19	  28
  19	  31
  19	  32
  19	  33
  19	  38
  19	  39
  19	  42
  19	  45
  19	  48
  19	  51
  19	  53
  19	  55
  19	  56
  20	  21
  20	  24
  20	  28
  20	  30
  20	  34
  20	  37
  20	  38
  20	  39
  20	  43
  20	  44
  20	  45
  20	  47
  20	  48
  20	  49
  20	  50
  20	  53
  20	  54
  20	  57
  20	  59
  21	  22
  21	  24
  21	  25
  21	  27
  21	  29
  21	  31
  21	  36
  21	  37
  21	  41
  21	  43
  21	  44
  21	  45
  21	  46
  21	  47
  21	  50
  21	  51
  21	  52
  21	  53
  21	  55
  21	  56
  21	  59
  22	  24
  22	  25
  22	  26
  22	  27
  22	  36
  22	  37
  22	  38
  22	  44
  22	  45
  22	  48
  22	  53
  22	  54
  22	  56
  22	  57
  22	  58
  22	  59
  23	  24
  23	  26
  23	  30
  23	  31
  23	  32
  23	  33
  23	  34
  23	  35
  23	  39
  23	  40
  23	  42
  23	  44
  23	  45
  23	  48
  23	  57
  23	  58
  23	  59
  24	  25
  24	  26
  24	  35
  24	  37
  24	  38
  24	  42
  24	  51
  24	  55
  24	  56
  24	  59
  25	  26
  25	  32
  25	  34
  25	  35
  25	  36
  25	  38
  25	  40
  25	  42
  25	  43
  25	  44
  25	  46
  25	  49
  25	  50
  25	  53
  25	  54
  25	  57
  26	  29
  26	  35
  26	  38
  26	  42
  26	  47
  26	  48
  26	  49
  26	  52
  26	  53
  26	  57
  26	  58
  27	  31
  27	  32
  27	  33
  27	  35
  27	  36
  27	  38
  27	  39
  27	  41
  27	  43
  27	  45
  27	  48
  27	  49
  27	  50
  27	  51
  27	  53
  27	  54
  27	  58
  28	  29
  28	  31
  28	  33
  28	  35
  28	  39
  28	  44
  28	  47
  28	  49
  28	  55
  28	  58
  28	  59
  29	  31
  29	  32
  29	  37
  29	  40
  29	  41
  29	  43
  29	  44
  29	  48
  29	  49
  29	  52
  29	  53
  29	  55
  29	  56
  29	  58
  29	  59
  30	  33
  30	  36
  30	  37
  30	  40
  30	  41
  30	  47
  30	  51
  30	  57
  31	  32
  31	  35
  31	  36
  31	  37
  31	  40
  31	  43
  31	  44
  31	  45
  31	  47
  31	  48
  31	  49
  31	  50
  31	  58
  32	  34
  32	  36
  32	  41
  32	  43
  32	  46
  32	  49
  32	  51
  32	  53
  32	  55
  32	  56
  32	  59
  33	  36
  33	  38
  33	  42
  33	  43
  33	  44
  33	  45
  33	  54
  33	  55
  33	  56
  33	  57
  33	  58
  33	  59
  34	  37
  34	  38
  34	  39
  34	  44
  34	  46
  34	  48
  34	  49
  34	  50
  34	  55
  35	  38
  35	  41
  35	  49
  35	  54
  35	  56
  35	  57
  35	  58
  36	  41
  36	  44
  36	  46
  36	  49
  36	  50
  36	  55
  36	  57
  36	  59
  37	  39
  37	  40
  37	  41
  37	  43
  37	  45
  37	  47
  37	  50
  37	  51
  37	  52
  37	  54
  37	  56
  37	  57
  37	  58
  37	  59
  38	  39
  38	  40
  38	  42
  38	  43
  38	  47
  38	  48
  38	  49
  38	  53
  38	  56
  38	  58
  39	  41
  39	  43
  39	  46
  39	  49
  39	  51
  39	  52
  39	  56
  39	  57
  40	  48
  40	  49
  40	  50
  40	  51
  40	  52
  40	  54
  40	  55
  40	  59
  41	  46
  41	  49
  41	  50
  41	  51
  41	  52
  41	  56
  41	  57
  42	  43
  42	  45
  42	  47
  42	  50
  42	  52
  42	  53
  42	  58
  43	  44
  43	  47
  43	  49
  43	  50
  43	  51
  43	  52
  43	  57
  44	  53
  44	  54
  44	  59
  45	  46
  45	  47
  45	  49
  45	  50
  45	  51
  45	  53
  45	  54
  45	  55
  46	  47
  46	  49
  46	  53
  46	  55
  46	  56
  46	  59
  47	  49
  47	  51
  47	  52
  47	  53
  47	  58
  48	  52
  48	  54
  48	  56
  48	  59
  49	  50
  49	  54
  50	  51
  50	  52
  50	  53
  50	  55
  50	  56
  51	  53
  51	  57
  52	  53
  52	  57
  52	  58
  53	  54
  53	  57
  53	  58
  53	  59
  54	  55
  54	  56
  54	  59
  55	  56
  55	  57
  56	  57
  56	  58
  57	  59
  58	  59
;
